DIMENSION: 14
EDGE_WEIGHT_TYPE: EXPLICIT
EDGE_WEIGHT_FORMAT: FULL_MATRIX
EDGE_WEIGHT_SECTION:
32767 32767 66 17 80 32767 32767 99 32767 32767 32767 32767 89 32767 
32767 32767 76 80 29 32767 32767 32767 32767 32767 43 32767 32767 32767 
66 76 32767 32767 77 32767 32767 32767 32767 49 32767 32767 32767 32767 
17 80 32767 32767 90 32767 32767 32767 66 32767 32767 32767 86 32767 
80 29 77 90 32767 32767 13 40 32767 32767 76 32767 35 32767 
32767 32767 32767 32767 32767 32767 32767 32767 43 32767 32767 32767 32767 41 
32767 32767 32767 32767 13 32767 32767 32767 32767 32 87 85 49 1 
99 32767 32767 32767 40 32767 32767 32767 51 32767 32767 32767 52 32767 
32767 32767 32767 66 32767 43 32767 51 32767 32767 32767 32767 32767 32767 
32767 32767 49 32767 32767 32767 32 32767 32767 32767 32767 27 32767 32767 
32767 43 32767 32767 76 32767 87 32767 32767 32767 32767 32767 73 32767 
32767 32767 32767 32767 32767 32767 85 32767 32767 27 32767 32767 32767 32767 
89 32767 32767 86 35 32767 49 52 32767 32767 73 32767 32767 42 
32767 32767 32767 32767 32767 41 1 32767 32767 32767 32767 32767 42 32767 
EOF